
******************************************************************************
This program contains Ipopt, a library for large-scale nonlinear optimization.
 Ipopt is released as open source code under the Eclipse Public License (EPL).
         For more information visit https://github.com/coin-or/Ipopt
******************************************************************************

This is Ipopt version 3.14.16, running with linear solver MUMPS 5.7.3.

Number of nonzeros in equality constraint Jacobian...:        0
Number of nonzeros in inequality constraint Jacobian.:     1521
Number of nonzeros in Lagrangian Hessian.............:        0

Total number of variables............................:       39
                     variables with only lower bounds:        0
                variables with lower and upper bounds:       39
                     variables with only upper bounds:        0
Total number of equality constraints.................:        0
Total number of inequality constraints...............:       39
        inequality constraints with only lower bounds:       39
   inequality constraints with lower and upper bounds:        0
        inequality constraints with only upper bounds:        0

iter    objective    inf_pr   inf_du lg(mu)  ||d||  lg(rg) alpha_du alpha_pr  ls
   0  5.7701662e-04 1.49e+00 6.41e-01   0.0 0.00e+00    -  0.00e+00 0.00e+00   0
   1  6.7060905e-04 1.47e+00 9.29e+00  -1.2 7.49e-01    -  2.15e-01 2.25e-02h  1
   2  1.0349633e-03 1.40e+00 6.76e+00  -0.5 2.40e+00    -  2.81e-01 5.30e-02f  1
   3  2.2097388e-02 2.40e-01 3.62e+01  -1.1 1.22e+00    -  1.66e-01 1.00e+00f  1
   4  3.1168959e-02 0.00e+00 2.14e+00  -1.0 4.23e-01    -  1.00e+00 1.00e+00f  1
   5  3.1704293e-02 0.00e+00 2.69e-02  -2.5 2.84e-02    -  9.97e-01 1.00e+00h  1
   6  3.0960591e-02 0.00e+00 5.17e-03  -3.6 3.93e-02    -  9.94e-01 1.00e+00h  1
   7  2.8332312e-02 1.21e-02 1.95e-03  -4.2 1.96e-01    -  1.00e+00 9.45e-01h  1
   8  2.8360352e-02 0.00e+00 2.98e-03  -4.5 1.58e-01    -  1.00e+00 1.00e+00h  1
   9  2.7972272e-02 1.88e-02 2.75e-02  -4.7 1.18e-01    -  1.00e+00 1.00e+00h  1
iter    objective    inf_pr   inf_du lg(mu)  ||d||  lg(rg) alpha_du alpha_pr  ls
  10  2.7482547e-02 2.63e-02 3.56e-03  -4.8 1.37e-01    -  1.00e+00 1.00e+00h  1
  11  2.7916143e-02 8.84e-03 1.25e-03  -4.6 1.56e-01    -  1.00e+00 1.00e+00h  1
  12  2.7964991e-02 1.85e-03 6.28e-04  -4.9 6.06e-02    -  9.98e-01 1.00e+00h  1
  13  2.7861164e-02 2.31e-03 2.55e-03  -5.3 6.47e-02    -  9.97e-01 1.00e+00h  1
  14  2.7669087e-02 9.14e-03 1.66e-03  -5.6 5.21e-02    -  1.00e+00 1.00e+00h  1
  15  2.7792672e-02 3.01e-03 1.02e-03  -5.7 9.12e-02    -  1.00e+00 1.00e+00h  1
  16  2.7598227e-02 8.40e-03 7.58e-04  -6.0 4.00e-02    -  1.00e+00 1.00e+00h  1
  17  2.8254090e-02 0.00e+00 2.14e-02  -5.7 1.13e-01    -  9.99e-01 9.79e-01H  1
  18  2.6982582e-02 3.00e-02 6.57e-04  -5.4 9.19e-02    -  1.00e+00 8.50e-01h  1
  19  2.7541188e-02 1.35e-02 9.75e-04  -5.1 5.10e-02    -  1.00e+00 1.00e+00h  1
iter    objective    inf_pr   inf_du lg(mu)  ||d||  lg(rg) alpha_du alpha_pr  ls
  20  2.7906512e-02 0.00e+00 2.47e-03  -5.4 1.90e-02    -  1.00e+00 1.00e+00h  1
  21  2.7838239e-02 2.07e-04 8.85e-04  -6.1 2.08e-02    -  1.00e+00 9.76e-01h  1
  22  2.7827295e-02 2.84e-05 3.99e-04  -7.1 6.59e-03    -  1.00e+00 1.00e+00h  1
  23  2.7768468e-02 2.04e-03 2.47e-03  -6.4 3.09e-02    -  1.00e+00 9.60e-01h  1
  24  2.7811687e-02 2.92e-04 3.69e-04  -6.9 9.80e-03    -  1.00e+00 1.00e+00h  1
  25  2.7818512e-02 7.44e-05 3.20e-04  -6.7 7.67e-03    -  1.00e+00 1.00e+00h  1
  26  2.7770823e-02 4.67e-03 2.27e-03  -5.5 6.90e-02    -  1.00e+00 7.34e-01h  1
  27  2.7847260e-02 5.95e-04 3.17e-04  -5.5 3.47e-02    -  9.12e-01 1.00e+00h  1
  28  2.7866076e-02 0.00e+00 2.35e-03  -5.5 6.01e-03    -  1.00e+00 1.00e+00h  1
  29  2.7865517e-02 0.00e+00 2.41e-04  -5.5 2.94e-03    -  1.00e+00 1.00e+00h  1
iter    objective    inf_pr   inf_du lg(mu)  ||d||  lg(rg) alpha_du alpha_pr  ls
  30  2.7830114e-02 2.75e-04 3.21e-04  -6.5 7.31e-03    -  1.00e+00 1.00e+00h  1
  31  2.7804687e-02 5.98e-04 4.08e-04  -6.5 2.37e-02    -  1.00e+00 6.05e-01h  1
  32  2.7805860e-02 3.30e-04 2.09e-04  -6.9 1.32e-02    -  1.00e+00 1.00e+00h  1
  33  2.7808696e-02 1.74e-04 3.27e-04  -7.0 1.27e-02    -  1.00e+00 1.00e+00h  1
  34  2.7744086e-02 3.69e-03 2.32e-03  -5.9 4.60e-02    -  1.00e+00 1.00e+00h  1
  35  2.7785547e-02 1.49e-03 3.13e-04  -6.1 2.56e-02    -  1.00e+00 1.00e+00h  1
  36  2.7799943e-02 1.39e-03 2.62e-03  -6.1 2.49e-02    -  1.00e+00 9.97e-01h  1
  37  2.7799937e-02 1.28e-03 4.52e-04  -5.8 1.30e-02    -  1.00e+00 1.00e+00h  1
  38  2.7823240e-02 0.00e+00 2.55e-03  -6.7 4.34e-03    -  1.00e+00 1.00e+00h  1
  39  2.7817686e-02 3.23e-05 2.31e-04  -6.4 3.09e-03    -  1.00e+00 1.00e+00h  1
iter    objective    inf_pr   inf_du lg(mu)  ||d||  lg(rg) alpha_du alpha_pr  ls
  40  2.7811888e-02 2.75e-05 2.95e-04  -7.7 2.07e-03    -  1.00e+00 1.00e+00h  1
  41  2.7814436e-02 7.91e-05 2.58e-04  -6.6 6.15e-03    -  1.00e+00 1.00e+00h  1
  42  2.7813739e-02 7.95e-05 2.35e-03  -6.6 6.75e-03    -  1.00e+00 1.00e+00h  1
  43  2.7815289e-02 7.60e-06 3.03e-04  -6.6 1.67e-03    -  1.00e+00 1.00e+00h  1
  44  2.7813538e-02 5.70e-05 2.84e-04  -6.6 5.98e-03    -  1.00e+00 9.03e-01h  1
  45  2.7813980e-02 1.52e-05 2.74e-04  -6.8 2.52e-03    -  1.00e+00 1.00e+00h  1
  46  2.7810299e-02 3.42e-05 2.78e-04  -7.5 2.92e-03    -  1.00e+00 1.00e+00h  1
  47  2.7809905e-02 8.39e-05 2.43e-03  -7.5 7.95e-03    -  1.00e+00 9.99e-01h  1
  48  2.7808715e-02 6.90e-05 2.37e-03  -7.8 6.76e-03    -  1.00e+00 1.00e+00h  1
  49  2.7807016e-02 1.47e-04 3.66e-04  -7.8 5.93e-03    -  1.00e+00 1.00e+00h  1
iter    objective    inf_pr   inf_du lg(mu)  ||d||  lg(rg) alpha_du alpha_pr  ls
  50  2.7811565e-02 3.23e-04 4.74e-04  -6.3 1.16e-02    -  1.00e+00 9.99e-01h  1
  51  2.7811437e-02 2.29e-04 2.50e-04  -6.4 8.86e-03    -  1.00e+00 1.00e+00h  1
  52  2.7818681e-02 0.00e+00 2.29e-04  -6.4 2.57e-03    -  1.00e+00 1.00e+00h  1
  53  2.7809063e-02 8.59e-05 2.91e-04  -7.3 4.30e-03    -  1.00e+00 1.00e+00h  1
  54  2.7806061e-02 2.20e-04 2.43e-03  -7.4 1.21e-02    -  1.00e+00 1.00e+00h  1
  55  2.7806768e-02 1.23e-04 2.71e-04  -7.8 1.03e-02    -  1.00e+00 1.00e+00h  1
  56  2.7706024e-02 4.10e-03 2.45e-03  -8.2 4.07e-02    -  1.00e+00 1.00e+00h  1
  57  2.7708917e-02 3.25e-03 2.76e-04  -7.8 3.60e-02    -  1.00e+00 1.00e+00h  1
  58  2.7806011e-02 4.56e-04 2.33e-03  -6.4 1.82e-02    -  1.00e+00 1.00e+00h  1
  59  2.7809791e-02 2.33e-04 3.23e-04  -6.5 1.08e-02    -  1.00e+00 1.00e+00h  1
iter    objective    inf_pr   inf_du lg(mu)  ||d||  lg(rg) alpha_du alpha_pr  ls
  60  2.7816242e-02 4.50e-05 3.22e-04  -6.5 1.29e-02    -  1.00e+00 1.00e+00h  1
  61  2.7811505e-02 1.67e-04 2.38e-04  -6.5 5.09e-03    -  1.00e+00 1.00e+00h  1
  62  2.7815700e-02 3.07e-05 2.51e-04  -6.5 3.44e-03    -  1.00e+00 1.00e+00h  1
  63  2.7816894e-02 0.00e+00 2.66e-04  -6.5 4.73e-03    -  1.00e+00 1.00e+00h  1
  64  2.7799379e-02 5.87e-04 2.40e-03  -7.4 1.42e-02    -  1.00e+00 9.99e-01h  1
  65  2.7801805e-02 2.88e-04 2.69e-04  -7.6 8.15e-03    -  1.00e+00 1.00e+00h  1
  66  2.7805154e-02 2.80e-04 2.45e-03  -7.7 1.19e-02    -  1.00e+00 1.00e+00h  1
  67  2.7804952e-02 1.97e-04 3.29e-04  -7.5 7.51e-03    -  1.00e+00 1.00e+00h  1
  68  2.7807797e-02 7.67e-05 2.18e-04  -8.2 5.38e-03    -  1.00e+00 1.00e+00h  1
  69  2.7809878e-02 3.72e-06 2.72e-04  -8.7 1.24e-03    -  1.00e+00 1.00e+00h  1
iter    objective    inf_pr   inf_du lg(mu)  ||d||  lg(rg) alpha_du alpha_pr  ls
  70  2.7810543e-02 3.27e-05 2.36e-03  -7.7 3.33e-03    -  1.00e+00 1.00e+00h  1
  71  2.7809799e-02 1.48e-05 2.61e-04  -7.8 2.59e-03    -  1.00e+00 1.00e+00h  1
  72  2.7809527e-02 1.71e-05 2.43e-03  -9.3 2.65e-03    -  1.00e+00 1.00e+00h  1
  73  2.7809150e-02 2.46e-05 2.75e-04  -9.8 3.23e-03    -  1.00e+00 1.00e+00h  1
  74  2.7809754e-02 6.12e-06 2.72e-04  -8.8 1.85e-03    -  1.00e+00 1.00e+00h  1
  75  2.7809553e-02 2.09e-05 2.39e-03  -7.9 2.09e-03    -  1.00e+00 1.00e+00h  1
  76  2.7809703e-02 1.21e-05 2.77e-04  -8.0 1.75e-03    -  1.00e+00 1.00e+00h  1
  77  2.7809605e-02 1.07e-05 2.62e-04  -8.5 1.95e-03    -  1.00e+00 1.00e+00h  1
  78  2.7808284e-02 2.40e-04 2.27e-03  -6.9 1.63e-02    -  1.00e+00 1.00e+00h  1
  79  2.7808078e-02 1.53e-04 3.03e-04  -7.0 1.42e-02    -  1.00e+00 5.58e-01h  1
iter    objective    inf_pr   inf_du lg(mu)  ||d||  lg(rg) alpha_du alpha_pr  ls
  80  2.7809261e-02 1.03e-04 3.15e-04  -7.0 1.61e-02    -  5.29e-01 5.00e-01f  2
  81  2.7808842e-02 1.09e-04 3.16e-04  -7.0 1.89e-01    -  2.59e-01 7.15e-03h  2
  82  2.7811249e-02 2.11e-05 2.36e-03  -7.0 3.73e-03    -  1.00e+00 1.00e+00h  1
  83  2.7603657e-02 7.89e-03 1.19e-03  -7.0 2.86e-01    -  2.58e-01 1.36e-01h  1
  84  2.7498003e-02 1.10e-02 2.63e-03  -6.2 6.90e-02    -  9.96e-01 1.00e+00f  1
  85  2.7682831e-02 8.74e-03 1.76e-03  -5.5 6.94e-02    -  1.00e+00 1.00e+00h  1
  86  2.7688904e-02 5.81e-03 2.37e-03  -5.5 4.14e-02    -  1.00e+00 1.00e+00h  1
  87  2.7849110e-02 1.61e-03 2.25e-03  -5.3 2.69e-02    -  1.00e+00 1.00e+00h  1
  88  2.7874100e-02 3.50e-04 2.37e-03  -5.4 1.47e-02    -  1.00e+00 1.00e+00h  1
  89  2.7788237e-02 3.90e-03 2.35e-03  -5.4 3.61e-02    -  1.00e+00 1.00e+00h  1
iter    objective    inf_pr   inf_du lg(mu)  ||d||  lg(rg) alpha_du alpha_pr  ls
  90  2.7814743e-02 2.92e-03 1.86e-03  -5.4 2.46e-02    -  1.00e+00 2.50e-01h  3
  91  2.7815753e-02 2.32e-03 3.03e-04  -5.4 3.97e-02    -  1.00e+00 1.00e+00h  1
  92  2.7859233e-02 1.17e-03 2.48e-03  -5.4 4.81e-02    -  1.00e+00 5.00e-01h  2
  93  2.7886234e-02 8.17e-05 7.00e-04  -5.4 1.05e-02    -  1.00e+00 1.00e+00h  1
  94  2.7881222e-02 3.41e-04 6.20e-04  -5.4 2.95e-02    -  1.00e+00 1.00e+00h  1
  95  2.7888450e-02 0.00e+00 3.31e-04  -5.4 1.80e-02    -  1.00e+00 1.00e+00h  1
  96  2.7890509e-02 0.00e+00 2.77e-04  -5.4 2.67e-03    -  1.00e+00 1.00e+00h  1
